db/data/223823091730744103536567941968865264.z3.out
sat
-------------------
9.654016348
